% Generated FlatZinc statistics:
%%%mzn-stat: paths=0
%%%mzn-stat: flatIntVars=1081
%%%mzn-stat: flatIntConstraints=1395
%%%mzn-stat: method="maximize"
%%%mzn-stat: flatTime=9.00276
%%%mzn-stat-end

=====UNKNOWN=====
%%%mzn-stat: nSolutions=0
%%%mzn-stat-end
